InboundTrucks  = 12;
OutboundTrucks = 8;
InboundDoors   = 4;
OutboundDoors  = 4;
ReleaseTime    = [27,30,3,12,55,28,20,26,12,25,12,43];
UnloadTime     = [39,26,43,12,40,38,41,25,27,7,37,12];
LoadTime       = [8,30,18,9,11,25,12,27];
TransferTime   = [| 24,0,21,0,0,0,28,23 | 27,0,0,16,0,26,20,15 | 48,0,0,18,0,0,0,0 | 0,38,0,0,16,20,0,0 | 0,0,34,22,0,0,36,0 | 44,37,0,0,40,0,24,0 | 0,45,12,0,0,0,0,0 | 0,0,0,0,0,0,0,22 | 45,0,0,0,0,0,25,0 | 41,0,49,0,0,0,0,0 | 0,47,0,40,25,0,0,33 | 0,0,22,20,0,0,0,0 |];
